HmaxDs = 0.000000
HmaxUB_percent = 1.158938
HmaxUB_real = 3223.783066
FTnetDs = 0.500000
FTnetUB_percent = 2.135995
FTnetUB_real = 5774.065756
TIFgap = 0.400000
LimCIPF = 60.615282
SCIP version 1.1.0 [precision: 8 byte] [memory: block] [mode: optimized] [LP solver: Clp 1.8.2]
Copyright (c) 2002-2008 Konrad-Zuse-Zentrum fuer Informationstechnik Berlin (ZIB)

reading user parameter file </home/fabio/docs/hierarquia/models/scip.set>

read problem <data.N30.I1.s1.cluster1.T5.GL2.W5.TIFgap0.4.mps.gz>
============

original problem has 815 variables (410 bin, 0 int, 0 impl, 405 cont) and 262 constraints

solve problem
=============

presolving:
(round 1) 3 del vars, 3 del conss, 4 chg bounds, 0 chg sides, 80 chg coeffs, 0 upgd conss, 0 impls, 100 clqs
(round 2) 5 del vars, 3 del conss, 4 chg bounds, 1 chg sides, 80 chg coeffs, 0 upgd conss, 0 impls, 100 clqs
(round 3) 5 del vars, 3 del conss, 4 chg bounds, 3 chg sides, 80 chg coeffs, 0 upgd conss, 0 impls, 100 clqs
(round 4) 5 del vars, 4 del conss, 4 chg bounds, 3 chg sides, 80 chg coeffs, 101 upgd conss, 0 impls, 100 clqs
(round 5) 55 del vars, 4 del conss, 4 chg bounds, 3 chg sides, 80 chg coeffs, 101 upgd conss, 1392 impls, 87 clqs
(round 6) 87 del vars, 24 del conss, 4 chg bounds, 3 chg sides, 80 chg coeffs, 101 upgd conss, 1392 impls, 80 clqs
presolving (7 rounds):
 87 deleted vars, 24 deleted constraints, 4 tightened bounds, 0 added holes, 3 changed sides, 80 changed coefficients
 10992 implications, 80 cliques
presolved problem has 728 variables (328 bin, 0 int, 0 impl, 400 cont) and 238 constraints
      1 constraints of type <knapsack>
     80 constraints of type <setppc>
    157 constraints of type <linear>
Presolving Time: 0.20

 time | node  | left  |LP iter| mem |mdpt |frac |vars |cons |ccons|cols |rows |cuts |confs|strbr|  dualbound   | primalbound  |  gap   
  0.2s|     1 |     0 |   238 |2166k|   0 | 105 | 728 | 238 | 238 | 728 | 238 |   0 |   0 |   0 | 1.824892e+01 |      --      |    Inf 
  0.6s|     1 |     0 |  1512 |2361k|   0 | 100 | 728 | 238 | 238 | 728 | 279 |  41 |   0 |   0 | 2.038259e+01 |      --      |    Inf 
  0.9s|     1 |     0 |  1695 |2449k|   0 | 109 | 728 | 238 | 238 | 728 | 309 |  71 |   0 |   0 | 2.881737e+01 |      --      |    Inf 
  1.3s|     1 |     0 |  1897 |2535k|   0 | 102 | 728 | 238 | 238 | 728 | 326 |  88 |   0 |   0 | 3.265958e+01 |      --      |    Inf 
  1.8s|     1 |     0 |  2027 |2570k|   0 | 112 | 728 | 238 | 238 | 728 | 341 | 103 |   0 |   0 | 3.465967e+01 |      --      |    Inf 
  2.3s|     1 |     0 |  2139 |2579k|   0 | 115 | 728 | 238 | 238 | 728 | 349 | 111 |   0 |   0 | 3.544663e+01 |      --      |    Inf 
  2.8s|     1 |     0 |  2254 |2588k|   0 | 105 | 728 | 238 | 238 | 728 | 356 | 118 |   0 |   0 | 3.623906e+01 |      --      |    Inf 
  3.3s|     1 |     0 |  2359 |2598k|   0 |  93 | 728 | 238 | 238 | 728 | 364 | 126 |   0 |   0 | 3.667114e+01 |      --      |    Inf 
  3.6s|     1 |     0 |  2360 |2599k|   0 |  93 | 728 | 238 | 238 | 728 | 365 | 127 |   0 |   0 | 3.667114e+01 |      --      |    Inf 
  4.9s|     1 |     2 |  2579 |2604k|   0 |  93 | 728 | 238 | 238 | 728 | 365 | 127 |   0 |  20 | 3.667114e+01 |      --      |    Inf 

SCIP Status        : problem is solved [infeasible]
Solving Time (sec) : 7.50
Solving Nodes      : 14
Primal Bound       : +1.00000000000000e+20 (0 solutions)
Dual Bound         : +1.00000000000000e+20
Gap                : 0.00 %

primal solution:
================

no solution available

Statistics
==========

SCIP Status        : problem is solved [infeasible]
Solving Time       :       7.50
Original Problem   :
  Problem name     : labtel
  Variables        : 815 (410 binary, 0 integer, 0 implicit integer, 405 continuous)
  Constraints      : 262 initial, 262 maximal
Presolved Problem  :
  Problem name     : t_labtel
  Variables        : 728 (328 binary, 0 integer, 0 implicit integer, 400 continuous)
  Constraints      : 238 initial, 242 maximal
Presolvers         :       Time  FixedVars   AggrVars   ChgTypes  ChgBounds   AddHoles    DelCons   ChgSides   ChgCoefs
  trivial          :       0.00          0          0          0          0          0          0          0          0
  dualfix          :       0.00          0          0          0          0          0          0          0          0
  boundshift       :       0.00          0          0          0          0          0          0          0          0
  inttobinary      :       0.00          0          0          0          0          0          0          0          0
  implics          :       0.00          0          0          0          0          0          0          0          0
  probing          :       0.17         50          0          0          0          0          0          0          0
  knapsack         :       0.00          0          0          0          0          0          0          0          0
  setppc           :       0.00         32          0          0          0          0         20          0          0
  linear           :       0.02          0          5          0          4          0          4          3         80
  logicor          :       0.00          0          0          0          0          0          0          0          0
  root node        :          -         41          -          -         41          -          -          -          -
Constraints        :     Number  #Separate #Propagate    #EnfoLP    #EnfoPS    Cutoffs    DomReds       Cuts      Conss   Children
  integral         :          0          0          0          7          0          0          0          0          0         14
  knapsack         :          1          9        842          0          0          0          0          0          0          0
  setppc           :         80          9        842          0          0          8        960          0          0          0
  linear           :        157          9        834          0          0          9         81          1          0          0
  logicor          :          0+         0          2          0          0          0          1          0          0          0
  countsols        :          0          0          0          0          0          0          0          0          0          0
Constraint Timings :  TotalTime   Separate  Propagate     EnfoLP     EnfoPS
  integral         :       2.68       0.00       0.00       2.68       0.00
  knapsack         :       0.00       0.00       0.00       0.00       0.00
  setppc           :       0.02       0.00       0.02       0.00       0.00
  linear           :       0.07       0.01       0.06       0.00       0.00
  logicor          :       0.00       0.00       0.00       0.00       0.00
  countsols        :       0.00       0.00       0.00       0.00       0.00
Propagators        :       Time      Calls    Cutoffs    DomReds
  rootredcost      :       0.00          0          0          0
  pseudoobj        :       0.00         40          0          0
Conflict Analysis  :       Time      Calls    Success  Conflicts   Literals    Reconvs ReconvLits   LP Iters
  propagation      :       0.00          5          3          5       10.2          0        0.0          -
  infeasible LP    :       0.00          1          0          0        0.0          0        0.0          0
  bound exceed. LP :       0.00          0          0          0        0.0          0        0.0          0
  strong branching :       0.00          0          0          0        0.0          0        0.0          0
  pseudo solution  :       0.00          0          0          0        0.0          0        0.0          -
  applied globally :          -          -          -          5       10.2          -          -          -
  applied locally  :          -          -          -          0        0.0          -          -          -
Separators         :       Time      Calls    Cutoffs    DomReds       Cuts      Conss
  cut pool         :       0.00          8          -          -         20          -    (maximal pool size: 183)
  redcost          :       0.00         15          0          0          0          0
  impliedbounds    :       0.00          9          0          0          0          0
  intobj           :       0.00          0          0          0          0          0
  gomory           :       0.17          9          0          0          1          0
  strongcg         :       0.10          9          0          0          1          0
  cmir             :       2.34          9          0          0        175          0
  flowcover        :       0.64          9          0          0         10          0
  clique           :       0.01          9          0          0          0          0
  zerohalf         :       0.00          0          0          0          0          0
  mcf              :       0.00          0          0          0          0          0
Pricers            :       Time      Calls       Vars
  problem variables:       0.00          0          0
Branching Rules    :       Time      Calls    Cutoffs    DomReds       Cuts      Conss   Children
  relpscost        :       2.68          7          0          0          0          0         14
  pscost           :       0.00          0          0          0          0          0          0
  inference        :       0.00          0          0          0          0          0          0
  mostinf          :       0.00          0          0          0          0          0          0
  leastinf         :       0.00          0          0          0          0          0          0
  fullstrong       :       0.00          0          0          0          0          0          0
  allfullstrong    :       0.00          0          0          0          0          0          0
  random           :       0.00          0          0          0          0          0          0
Primal Heuristics  :       Time      Calls      Found
  LP solutions     :       0.00          -          0
  pseudo solutions :       0.00          -          0
  oneopt           :       0.00          0          0
  coefdiving       :       0.00          0          0
  pscostdiving     :       0.00          0          0
  fracdiving       :       0.00          0          0
  veclendiving     :       0.00          0          0
  objpscostdiving  :       0.00          0          0
  rootsoldiving    :       0.00          0          0
  simplerounding   :       0.00          0          0
  rounding         :       0.00         15          0
  shifting         :       0.03          9          0
  intshifting      :       0.04          1          0
  fixandinfer      :       0.00          0          0
  feaspump         :       0.14          1          0
  intdiving        :       0.00          0          0
  actconsdiving    :       0.00          0          0
  linesearchdiving :       0.00          0          0
  guideddiving     :       0.00          0          0
  octane           :       0.00          0          0
  rens             :       0.32          1          0
  rins             :       0.00          0          0
  localbranching   :       0.00          0          0
  mutation         :       0.00          0          0
  crossover        :       0.00          0          0
  dins             :       0.00          0          0
LP                 :       Time      Calls Iterations  Iter/call   Iter/sec
  primal LP        :       0.02          0          0       0.00       0.00
  dual LP          :       0.73         16       4188     261.75    5736.99
  barrier LP       :       0.00          0          0       0.00          -
  diving/probing LP:       0.18         15       1342      89.47    7455.56
  strong branching :       2.68        115      15691     136.44    5854.85
    (at root node) :          -         20       3039     151.95          -
  conflict analysis:       0.00          0          0       0.00          -
B&B Tree           :
  number of runs   :          1
  nodes            :         14
  nodes (total)    :         14
  nodes left       :          0
  max depth        :          5
  max depth (total):          5
  backtracks       :          3 (21.4%)
  delayed cutoffs  :          1
  repropagations   :          1 (41 domain reductions, 1 cutoffs)
  avg switch length:       2.29
  switching time   :       0.02
Solution           :
  Solutions found  :          0 (0 improvements)
  Primal Bound     : infeasible
  Dual Bound       :          -
  Gap              :       0.00 %
  Root Dual Bound  : +3.66711425980506e+01
